Version identifier: 12.10.0.0 | 2019-11-26 | 843d4de
CPXPARAM_WorkMem                                 28672
Tried aggregator 2 times.
Aggregator did 20 substitutions.
Reduced MIP has 73 rows, 90 columns, and 321 nonzeros.
Reduced MIP has 90 binaries, 0 generals, 0 SOSs, and 0 indicators.
Presolve time = 0,00 sec. (0,30 ticks)
Found incumbent of value 60,000000 after 0,00 sec. (0,59 ticks)
Probing time = 0,00 sec. (0,09 ticks)
Tried aggregator 1 time.
Detecting symmetries...
MIP Presolve eliminated 9 rows and 0 columns.
MIP Presolve added 18 rows and 0 columns.
Reduced MIP has 82 rows, 90 columns, and 330 nonzeros.
Reduced MIP has 90 binaries, 0 generals, 0 SOSs, and 0 indicators.
Presolve time = 0,00 sec. (0,36 ticks)
Probing time = 0,00 sec. (0,09 ticks)
Clique table members: 211.
MIP emphasis: balance optimality and feasibility.
MIP search method: dynamic search.
Parallel mode: deterministic, using up to 16 threads.
Root relaxation solution time = 0,00 sec. (0,17 ticks)

        Nodes                                         Cuts/
   Node  Left     Objective  IInf  Best Integer    Best Bound    ItCnt     Gap

*     0+    0                           60,0000        0,0000           100,00%
*     0+    0                           41,0000        0,0000           100,00%
      0     0       20,0000    49       41,0000       20,0000       29   51,22%
*     0+    0                           40,0000       20,0000            50,00%
      0     0       20,0000    49       40,0000      Cuts: 80       63   50,00%
      0     0       20,0000    49       40,0000     Cuts: 120      102   50,00%
      0     0       20,0096    49       40,0000     Cuts: 118      161   49,98%
      0     0       20,1117    49       40,0000     Cuts: 114      175   49,72%
      0     0       20,1773    49       40,0000     Cuts: 107      185   49,56%
      0     0       20,9048    49       40,0000      Cuts: 85      214   47,74%
*     0+    0                           39,0000       20,9048            46,40%
*     0+    0                           36,0000       20,9048            41,93%
      0     2       20,9048    89       36,0000       22,6741      214   37,02%
Elapsed time = 0,07 sec. (18,11 ticks, tree = 0,02 MB, solutions = 5)

Clique cuts applied:  56
Cover cuts applied:  81
Implied bound cuts applied:  1
Flow cuts applied:  1
Mixed integer rounding cuts applied:  15
Zero-half cuts applied:  21
Gomory fractional cuts applied:  13

Root node processing (before b&c):
  Real time             =    0,06 sec. (17,98 ticks)
Parallel b&c, 16 threads:
  Real time             =    0,03 sec. (7,90 ticks)
  Sync time (average)   =    0,02 sec.
  Wait time (average)   =    0,00 sec.
                          ------------
Total (root+branch&cut) =    0,09 sec. (25,88 ticks)
